p tw 256 704
1 33
2 34
3 35
4 36
5 37
6 38
7 39
8 40
9 41
10 42
11 43
12 44
13 45
14 46
15 47
16 48
17 49
18 50
19 51
20 52
21 53
22 54
23 55
24 56
25 57
26 58
27 59
28 60
29 61
30 62
31 63
32 64
33 98
33 102
33 103
33 104
34 92
34 110
34 112
34 113
35 73
35 91
35 108
35 109
36 93
36 99
36 134
36 136
37 84
37 102
37 134
37 135
38 83
38 116
38 129
38 130
39 65
39 66
39 67
39 68
40 112
40 117
40 139
40 141
41 106
41 108
41 119
41 120
42 67
42 105
42 110
42 111
43 82
43 116
43 117
43 118
44 75
44 79
44 80
44 81
45 89
45 122
45 131
45 133
46 127
46 129
46 131
46 132
47 82
47 83
47 84
47 85
48 69
48 86
48 89
48 90
49 75
49 76
49 77
49 78
50 70
50 76
50 114
50 115
51 96
51 103
51 137
51 138
52 79
52 95
52 96
52 97
53 91
53 92
53 93
53 94
54 114
54 125
54 127
54 128
55 121
55 122
55 123
55 124
56 87
56 137
56 139
56 140
57 80
57 100
57 142
57 144
58 119
58 121
58 125
58 126
59 98
59 99
59 100
59 101
60 95
60 105
60 106
60 107
61 66
61 72
61 73
61 74
62 72
62 86
62 87
62 88
63 77
63 123
63 142
63 143
64 65
64 69
64 70
64 71
65 66
65 67
65 68
65 69
65 70
65 71
66 67
66 68
66 72
66 73
66 74
67 68
67 105
67 110
67 111
68 145
68 146
68 147
68 148
69 70
69 71
69 86
69 89
69 90
70 71
70 76
70 114
70 115
71 145
71 149
71 150
71 151
72 73
72 74
72 86
72 87
72 88
73 74
73 91
73 108
73 109
74 146
74 152
74 153
74 154
75 76
75 77
75 78
75 79
75 80
75 81
76 77
76 78
76 114
76 115
77 78
77 123
77 142
77 143
78 155
78 156
78 157
78 158
79 80
79 81
79 95
79 96
79 97
80 81
80 100
80 142
80 144
81 155
81 159
81 160
81 161
82 83
82 84
82 85
82 116
82 117
82 118
83 84
83 85
83 116
83 129
83 130
84 85
84 102
84 134
84 135
85 162
85 163
85 164
85 165
86 87
86 88
86 89
86 90
87 88
87 137
87 139
87 140
88 152
88 166
88 167
88 168
89 90
89 122
89 131
89 133
90 149
90 166
90 169
90 170
91 92
91 93
91 94
91 108
91 109
92 93
92 94
92 110
92 112
92 113
93 94
93 99
93 134
93 136
94 171
94 172
94 173
94 174
95 96
95 97
95 105
95 106
95 107
96 97
96 103
96 137
96 138
97 159
97 175
97 176
97 177
98 99
98 100
98 101
98 102
98 103
98 104
99 100
99 101
99 134
99 136
100 101
100 142
100 144
101 178
101 179
101 180
101 181
102 103
102 104
102 134
102 135
103 104
103 137
103 138
104 178
104 182
104 183
104 184
105 106
105 107
105 110
105 111
106 107
106 108
106 119
106 120
107 175
107 185
107 186
107 187
108 109
108 119
108 120
109 153
109 171
109 188
109 189
110 111
110 112
110 113
111 147
111 185
111 190
111 191
112 113
112 117
112 139
112 141
113 172
113 190
113 192
113 193
114 115
114 125
114 127
114 128
115 150
115 156
115 194
115 195
116 117
116 118
116 129
116 130
117 118
117 139
117 141
118 162
118 196
118 197
118 198
119 120
119 121
119 125
119 126
120 186
120 188
120 199
120 200
121 122
121 123
121 124
121 125
121 126
122 123
122 124
122 131
122 133
123 124
123 142
123 143
124 201
124 202
124 203
124 204
125 126
125 127
125 128
126 199
126 201
126 205
126 206
127 128
127 129
127 131
127 132
128 194
128 205
128 207
128 208
129 130
129 131
129 132
130 163
130 196
130 209
130 210
131 132
131 133
132 207
132 209
132 211
132 212
133 169
133 202
133 211
133 213
134 135
134 136
135 164
135 182
135 214
135 215
136 173
136 179
136 214
136 216
137 138
137 139
137 140
138 176
138 183
138 217
138 218
139 140
139 141
140 167
140 217
140 219
140 220
141 192
141 197
141 219
141 221
142 143
142 144
143 157
143 203
143 222
143 223
144 160
144 180
144 222
144 224
145 146
145 147
145 148
145 149
145 150
145 151
146 147
146 148
146 152
146 153
146 154
147 148
147 185
147 190
147 191
148 250
149 150
149 151
149 166
149 169
149 170
150 151
150 156
150 194
150 195
151 225
152 153
152 154
152 166
152 167
152 168
153 154
153 171
153 188
153 189
154 228
155 156
155 157
155 158
155 159
155 160
155 161
156 157
156 158
156 194
156 195
157 158
157 203
157 222
157 223
158 240
159 160
159 161
159 175
159 176
159 177
160 161
160 180
160 222
160 224
161 245
162 163
162 164
162 165
162 196
162 197
162 198
163 164
163 165
163 196
163 209
163 210
164 165
164 182
164 214
164 215
165 242
166 167
166 168
166 169
166 170
167 168
167 217
167 219
167 220
168 227
169 170
169 202
169 211
169 213
170 241
171 172
171 173
171 174
171 188
171 189
172 173
172 174
172 190
172 192
172 193
173 174
173 179
173 214
173 216
174 236
175 176
175 177
175 185
175 186
175 187
176 177
176 183
176 217
176 218
177 237
178 179
178 180
178 181
178 182
178 183
178 184
179 180
179 181
179 214
179 216
180 181
180 222
180 224
181 230
182 183
182 184
182 214
182 215
183 184
183 217
183 218
184 256
185 186
185 187
185 190
185 191
186 187
186 188
186 199
186 200
187 229
188 189
188 199
188 200
189 254
190 191
190 192
190 193
191 247
192 193
192 197
192 219
192 221
193 255
194 195
194 205
194 207
194 208
195 239
196 197
196 198
196 209
196 210
197 198
197 219
197 221
198 246
199 200
199 201
199 205
199 206
200 248
201 202
201 203
201 204
201 205
201 206
202 203
202 204
202 211
202 213
203 204
203 222
203 223
204 234
205 206
205 207
205 208
206 231
207 208
207 209
207 211
207 212
208 235
209 210
209 211
209 212
210 251
211 212
211 213
212 243
213 244
214 215
214 216
215 252
216 253
217 218
217 219
217 220
218 238
219 220
219 221
220 233
221 249
222 223
222 224
223 226
224 232
